Ba Br I
     1.0
        5.0496001244         0.0000000000         0.0000000000
        0.0000000000         8.6709995270         0.0000000000
        0.0000000000         0.0000000000        10.0200004578
    I   Ba   Br
    4    4    4
Direct
     0.250000000         0.028820001         0.670180023 T T T
     0.750000000         0.971180022         0.329819977 T T T
     0.750000000         0.471179992         0.170179993 T T T
     0.250000000         0.528820038         0.829820037 T T T
     0.250000000         0.260030001         0.378239989 T T T
     0.750000000         0.739969969         0.621760011 T T T
     0.250000000         0.760029972         0.121760003 T T T
     0.750000000         0.239970028         0.878239989 T T T
     0.250000000         0.643679976         0.432139993 T T T
     0.750000000         0.356320024         0.567860007 T T T
     0.250000000         0.143680006         0.067860000 T T T
     0.750000000         0.856320024         0.932139993 T T T
     
     
