Si48 O96
1.0
19.607762 0.000000 0.000000
0.000000 19.607762 0.000000
0.000000 0.000000 7.496450
Si O
48 96
direct
0.643268 0.744386 0.906719 Si
0.191941 0.919075 0.539211 Si
0.580925 0.691941 0.539211 Si
0.744386 0.643268 0.093281 Si
0.919075 0.191941 0.460789 Si
0.255614 0.356732 0.093281 Si
0.856732 0.244386 0.093281 Si
0.192391 0.420248 0.749372 Si
0.920248 0.307609 0.749372 Si
0.244386 0.143268 0.906719 Si
0.192391 0.579752 0.749372 Si
0.079752 0.692391 0.749372 Si
0.308059 0.580925 0.460789 Si
0.692391 0.079752 0.250628 Si
0.692391 0.920248 0.250628 Si
0.143268 0.755614 0.093281 Si
0.307609 0.079752 0.250628 Si
0.356732 0.255614 0.906719 Si
0.244386 0.856732 0.906719 Si
0.691941 0.580925 0.460789 Si
0.419075 0.308059 0.539211 Si
0.755614 0.856732 0.906719 Si
0.579752 0.807609 0.250628 Si
0.307609 0.920248 0.250628 Si
0.080925 0.808059 0.460789 Si
0.643268 0.255614 0.906719 Si
0.755614 0.143268 0.906719 Si
0.808059 0.080925 0.539211 Si
0.308059 0.419075 0.460789 Si
0.143268 0.244386 0.093281 Si
0.356732 0.744386 0.906719 Si
0.808059 0.919075 0.539211 Si
0.420248 0.807609 0.250628 Si
0.579752 0.192391 0.250628 Si
0.191941 0.080925 0.539211 Si
0.919075 0.808059 0.460789 Si
0.691941 0.419075 0.460789 Si
0.079752 0.307609 0.749372 Si
0.580925 0.308059 0.539211 Si
0.255614 0.643268 0.093281 Si
0.080925 0.191941 0.460789 Si
0.807609 0.420248 0.749372 Si
0.856732 0.755614 0.093281 Si
0.920248 0.692391 0.749372 Si
0.420248 0.192391 0.250628 Si
0.744386 0.356732 0.093281 Si
0.807609 0.579752 0.749372 Si
0.419075 0.691941 0.539211 Si
0.378495 0.621505 0.500000 O
0.621505 0.621505 0.500000 O
0.173362 0.500000 0.722443 O
0.748360 0.397167 0.609620 O
0.297633 0.202367 0.842460 O
0.177935 0.822065 0.000000 O
0.397167 0.251640 0.390380 O
0.897167 0.751640 0.609620 O
0.407989 0.218967 0.047328 O
0.751640 0.102833 0.390380 O
0.720663 0.401071 0.263648 O
0.875719 0.624281 0.711106 O
0.102833 0.248360 0.609620 O
0.281033 0.907989 0.047328 O
0.673362 0.000000 0.277557 O
0.897167 0.248360 0.609620 O
0.297633 0.797633 0.842460 O
0.326638 0.000000 0.277557 O
0.000000 0.176226 0.472481 O
0.176226 0.000000 0.527519 O
0.220663 0.901071 0.736352 O
0.177935 0.177935 0.000000 O
0.677935 0.322065 0.000000 O
0.281033 0.092011 0.047328 O
0.401071 0.720663 0.736352 O
0.375719 0.124281 0.288894 O
0.781033 0.592011 0.952672 O
0.251640 0.602833 0.609620 O
0.218967 0.592011 0.952672 O
0.500000 0.676226 0.527519 O
0.378495 0.378495 0.500000 O
0.718967 0.092011 0.047328 O
0.602833 0.748360 0.390380 O
0.676226 0.500000 0.472481 O
0.826638 0.500000 0.722443 O
0.401071 0.279337 0.736352 O
0.797633 0.702367 0.157540 O
0.822065 0.177935 0.000000 O
0.124281 0.375719 0.711106 O
0.592011 0.781033 0.047328 O
0.878495 0.878495 0.500000 O
0.624281 0.875719 0.288894 O
0.218967 0.407989 0.952672 O
0.248360 0.897167 0.390380 O
0.720663 0.598929 0.263648 O
0.702367 0.202367 0.842460 O
0.602833 0.251640 0.390380 O
0.624281 0.124281 0.288894 O
0.322065 0.322065 0.000000 O
0.751640 0.897167 0.390380 O
0.000000 0.326638 0.722443 O
0.202367 0.297633 0.157540 O
0.500000 0.323774 0.527519 O
0.397167 0.748360 0.390380 O
0.251640 0.397167 0.609620 O
0.822065 0.822065 0.000000 O
0.121505 0.878495 0.500000 O
0.407989 0.781033 0.047328 O
0.901071 0.220663 0.263648 O
0.000000 0.673362 0.722443 O
0.702367 0.797633 0.842460 O
0.098929 0.779337 0.263648 O
0.500000 0.173362 0.277557 O
0.121505 0.121505 0.500000 O
0.323774 0.500000 0.472481 O
0.098929 0.220663 0.263648 O
0.102833 0.751640 0.609620 O
0.092011 0.718967 0.952672 O
0.598929 0.279337 0.736352 O
0.220663 0.098929 0.736352 O
0.907989 0.718967 0.952672 O
0.823774 0.000000 0.527519 O
0.279337 0.598929 0.263648 O
0.875719 0.375719 0.711106 O
0.779337 0.098929 0.736352 O
0.279337 0.401071 0.263648 O
0.748360 0.602833 0.609620 O
0.677935 0.677935 0.000000 O
0.901071 0.779337 0.263648 O
0.598929 0.720663 0.736352 O
0.621505 0.378495 0.500000 O
0.000000 0.823774 0.472481 O
0.781033 0.407989 0.952672 O
0.878495 0.121505 0.500000 O
0.092011 0.281033 0.952672 O
0.797633 0.297633 0.157540 O
0.500000 0.826638 0.277557 O
0.375719 0.875719 0.288894 O
0.592011 0.218967 0.047328 O
0.779337 0.901071 0.736352 O
0.322065 0.677935 0.000000 O
0.718967 0.907989 0.047328 O
0.248360 0.102833 0.390380 O
0.907989 0.281033 0.952672 O
0.124281 0.624281 0.711106 O
0.202367 0.702367 0.157540 O
